

param n :=3; #Companies
param m :=3; #Queries
    
param ca := #revenue - as negative for the std form
    1 -1
    2 -0.75
    3 -5
    4 -0.5
    5 -0.5
    6 -2
    7 -0.5 
    8 -3
    9 -1
    ;
       
param ba:=
    1 200
    2 150
    3 180
    4 150
    5 90
    6 80
    ;

param a: 1 2 3 4 5 6 7 8 9 :=
1 1 0.75 5 0 0 0 0 0 0
2 0 0 0 0.5 0.5 2 0 0 0
3 0 0 0 0 0 0 0.5 3 1
4 1 0 0 1 0 0 1 0 0
5 0 1 0 0 1 0 0 1 0
6 0 0 1 0 0 1 0 0 1
;